% Generated by MiniZinc 2.9.3
% Solver library: /home/icwmmarijnisse/Pumpkin/minizinc/lib
% Command line invocation: minizinc --compile --fzn ./instance.fzn --ozn ./instance.ozn --solver pumpkin ../../../../benchmarks/models/rcpsp/rcpsp.mzn ../../../../benchmarks/models/rcpsp/small_pack024.dzn 

predicate int_lin_le_imp(array [int] of int: as,array [int] of var int: bs,int: c,var bool: r);
predicate pumpkin_cumulative(array [int] of var int: s,array [int] of int: d,array [int] of int: r,int: b);
array [1..2] of int: X_INTRODUCED_26_ = [1,-1];
var 0..30: X_INTRODUCED_16_;
var 0..30: X_INTRODUCED_17_;
var 0..30: X_INTRODUCED_18_;
var 0..30: X_INTRODUCED_19_;
var 0..30: X_INTRODUCED_20_;
var 0..30: X_INTRODUCED_21_;
var 0..30: X_INTRODUCED_22_;
var 0..31: Objective:: output_var;
var bool: X_INTRODUCED_28_ ::var_is_introduced :: is_defined_var;
var bool: X_INTRODUCED_30_ ::var_is_introduced :: is_defined_var;
var bool: X_INTRODUCED_32_ ::var_is_introduced :: is_defined_var;
var bool: X_INTRODUCED_33_ ::var_is_introduced :: is_defined_var;
var bool: X_INTRODUCED_34_ ::var_is_introduced :: is_defined_var;
var bool: X_INTRODUCED_36_ ::var_is_introduced :: is_defined_var;
var bool: X_INTRODUCED_38_ ::var_is_introduced :: is_defined_var;
var bool: X_INTRODUCED_39_ ::var_is_introduced :: is_defined_var;
var bool: X_INTRODUCED_40_ ::var_is_introduced :: is_defined_var;
var bool: X_INTRODUCED_41_ ::var_is_introduced :: is_defined_var;
var bool: X_INTRODUCED_43_ ::var_is_introduced :: is_defined_var;
var bool: X_INTRODUCED_44_ ::var_is_introduced :: is_defined_var;
array [1..7] of var int: Start:: output_array([1..7]) = [X_INTRODUCED_16_,X_INTRODUCED_17_,X_INTRODUCED_18_,X_INTRODUCED_19_,X_INTRODUCED_20_,X_INTRODUCED_21_,X_INTRODUCED_22_];
array [1..8] of var int: X_INTRODUCED_48_ ::var_is_introduced  = [X_INTRODUCED_16_,X_INTRODUCED_17_,X_INTRODUCED_18_,X_INTRODUCED_19_,X_INTRODUCED_20_,X_INTRODUCED_21_,X_INTRODUCED_22_,Objective];
constraint int_lin_le(X_INTRODUCED_26_,[X_INTRODUCED_16_,X_INTRODUCED_18_],-2);
constraint int_lin_le(X_INTRODUCED_26_,[X_INTRODUCED_16_,X_INTRODUCED_19_],-2);
constraint int_lin_le(X_INTRODUCED_26_,[X_INTRODUCED_16_,X_INTRODUCED_20_],-2);
constraint int_lin_le(X_INTRODUCED_26_,[X_INTRODUCED_18_,X_INTRODUCED_19_],-2);
constraint int_lin_le(X_INTRODUCED_26_,[X_INTRODUCED_18_,X_INTRODUCED_22_],-2);
constraint bool_clause([X_INTRODUCED_28_,X_INTRODUCED_30_],[]);
constraint bool_clause([X_INTRODUCED_32_,X_INTRODUCED_33_],[]);
constraint bool_clause([X_INTRODUCED_34_,X_INTRODUCED_36_],[]);
constraint bool_clause([X_INTRODUCED_38_,X_INTRODUCED_39_],[]);
constraint bool_clause([X_INTRODUCED_40_,X_INTRODUCED_41_],[]);
constraint bool_clause([X_INTRODUCED_43_,X_INTRODUCED_44_],[]);
constraint pumpkin_cumulative(Start,[2,4,2,6,2,5,10],[2,2,3,2,3,1,5],5);
constraint pumpkin_cumulative(Start,[2,4,2,6,2,5,10],[3,3,1,2,2,3,1],8);
constraint int_lin_le(X_INTRODUCED_26_,[X_INTRODUCED_17_,Objective],-4);
constraint int_lin_le(X_INTRODUCED_26_,[X_INTRODUCED_19_,Objective],-6);
constraint int_lin_le(X_INTRODUCED_26_,[X_INTRODUCED_20_,Objective],-2);
constraint int_lin_le(X_INTRODUCED_26_,[X_INTRODUCED_21_,Objective],-5);
constraint int_lin_le(X_INTRODUCED_26_,[X_INTRODUCED_22_,Objective],-10);
constraint int_lin_le_imp(X_INTRODUCED_26_,[X_INTRODUCED_16_,X_INTRODUCED_22_],-2,X_INTRODUCED_28_):: defines_var(X_INTRODUCED_28_);
constraint int_lin_le_imp(X_INTRODUCED_26_,[X_INTRODUCED_22_,X_INTRODUCED_16_],-10,X_INTRODUCED_30_):: defines_var(X_INTRODUCED_30_);
constraint int_lin_le_imp(X_INTRODUCED_26_,[X_INTRODUCED_17_,X_INTRODUCED_22_],-4,X_INTRODUCED_32_):: defines_var(X_INTRODUCED_32_);
constraint int_lin_le_imp(X_INTRODUCED_26_,[X_INTRODUCED_22_,X_INTRODUCED_17_],-10,X_INTRODUCED_33_):: defines_var(X_INTRODUCED_33_);
constraint int_lin_le_imp(X_INTRODUCED_26_,[X_INTRODUCED_18_,X_INTRODUCED_20_],-2,X_INTRODUCED_34_):: defines_var(X_INTRODUCED_34_);
constraint int_lin_le_imp(X_INTRODUCED_26_,[X_INTRODUCED_20_,X_INTRODUCED_18_],-2,X_INTRODUCED_36_):: defines_var(X_INTRODUCED_36_);
constraint int_lin_le_imp(X_INTRODUCED_26_,[X_INTRODUCED_19_,X_INTRODUCED_22_],-6,X_INTRODUCED_38_):: defines_var(X_INTRODUCED_38_);
constraint int_lin_le_imp(X_INTRODUCED_26_,[X_INTRODUCED_22_,X_INTRODUCED_19_],-10,X_INTRODUCED_39_):: defines_var(X_INTRODUCED_39_);
constraint int_lin_le_imp(X_INTRODUCED_26_,[X_INTRODUCED_20_,X_INTRODUCED_22_],-2,X_INTRODUCED_40_):: defines_var(X_INTRODUCED_40_);
constraint int_lin_le_imp(X_INTRODUCED_26_,[X_INTRODUCED_22_,X_INTRODUCED_20_],-10,X_INTRODUCED_41_):: defines_var(X_INTRODUCED_41_);
constraint int_lin_le_imp(X_INTRODUCED_26_,[X_INTRODUCED_21_,X_INTRODUCED_22_],-5,X_INTRODUCED_43_):: defines_var(X_INTRODUCED_43_);
constraint int_lin_le_imp(X_INTRODUCED_26_,[X_INTRODUCED_22_,X_INTRODUCED_21_],-10,X_INTRODUCED_44_):: defines_var(X_INTRODUCED_44_);
solve :: int_search(X_INTRODUCED_48_,smallest,indomain_min,complete) minimize Objective;
